Set parameter TokenServer to value "hpc-licenses.hpcc.usc.edu"
Set parameter TimeLimit to value 3600
Gurobi Optimizer version 9.5.1 build v9.5.1rc2 (linux64)
Thread count: 20 physical cores, 20 logical processors, using up to 20 threads
Optimize a model with 6007 rows, 4529 columns and 24534 nonzeros
Model fingerprint: 0x00275ac1
Variable types: 4506 continuous, 23 integer (23 binary)
Coefficient statistics:
  Matrix range     [1e+00, 1e+00]
  Objective range  [8e-04, 1e+00]
  Bounds range     [1e+00, 1e+00]
  RHS range        [1e+00, 1e+02]
Found heuristic solution: objective 255.9581427
Presolve removed 1520 rows and 1515 columns
Presolve time: 0.06s
Presolved: 4487 rows, 3014 columns, 21975 nonzeros
Variable types: 2994 continuous, 20 integer (20 binary)

Root relaxation: objective 2.708699e+02, 2551 iterations, 0.11 seconds (0.14 work units)

    Nodes    |    Current Node    |     Objective Bounds      |     Work
 Expl Unexpl |  Obj  Depth IntInf | Incumbent    BestBd   Gap | It/Node Time

     0     0  270.86994    0    2  255.95814  270.86994  5.83%     -    0s
H    0     0                     260.3307455  270.86994  4.05%     -    0s
     0     0  270.80534    0    2  260.33075  270.80534  4.02%     -    0s
H    0     0                     263.3926234  270.67687  2.77%     -    0s
     0     0  270.67687    0    2  263.39262  270.67687  2.77%     -    0s
     0     0  270.25463    0    2  263.39262  270.25463  2.61%     -    0s
     0     0  270.23964    0    3  263.39262  270.23964  2.60%     -    0s
     0     0  269.99969    0    4  263.39262  269.99969  2.51%     -    0s
     0     0  269.99969    0    4  263.39262  269.99969  2.51%     -    0s
     0     0  269.92173    0    4  263.39262  269.92173  2.48%     -    0s
     0     0  269.87209    0    4  263.39262  269.87209  2.46%     -    0s
     0     0  269.85871    0    2  263.39262  269.85871  2.45%     -    0s
     0     0  269.71422    0    7  263.39262  269.71422  2.40%     -    0s
     0     0  269.71422    0    2  263.39262  269.71422  2.40%     -    0s
     0     0  269.71422    0    7  263.39262  269.71422  2.40%     -    0s
     0     0  269.71422    0    3  263.39262  269.71422  2.40%     -    0s
H    0     0                     268.5461993  269.71422  0.43%     -    0s
     0     0  269.70896    0    4  268.54620  269.70896  0.43%     -    0s
     0     0  269.61923    0    7  268.54620  269.61923  0.40%     -    0s
     0     0  269.61923    0    2  268.54620  269.61923  0.40%     -    1s
     0     0  269.61923    0    2  268.54620  269.61923  0.40%     -    1s
     0     0  269.61923    0    2  268.54620  269.61923  0.40%     -    2s
     0     0  269.61923    0    2  268.54620  269.61923  0.40%     -    2s
     0     0  269.61923    0    2  268.54620  269.61923  0.40%     -    2s
     0     0  269.61923    0    2  268.54620  269.61923  0.40%     -    2s
     0     0  269.61923    0    2  268.54620  269.61923  0.40%     -    2s
     0     0  269.61923    0    2  268.54620  269.61923  0.40%     -    2s
     0     0  269.61923    0    2  268.54620  269.61923  0.40%     -    2s
     0     0  269.61923    0    7  268.54620  269.61923  0.40%     -    2s
     0     0  269.61923    0    2  268.54620  269.61923  0.40%     -    2s
     0     0  269.61923    0    7  268.54620  269.61923  0.40%     -    2s
H    0     0                     268.9447339  269.61923  0.25%     -    2s
     0     0  269.61923    0    7  268.94473  269.61923  0.25%     -    2s
     0     0  269.61923    0    7  268.94473  269.61923  0.25%     -    2s
     0     0  269.61923    0    6  268.94473  269.61923  0.25%     -    2s
     0     0  269.48282    0    6  268.94473  269.48282  0.20%     -    2s
     0     0  269.47900    0    6  268.94473  269.47900  0.20%     -    2s
     0     0  269.47900    0    6  268.94473  269.47900  0.20%     -    2s
     0     0  268.94473    0    7  268.94473  268.94473  0.00%     -    2s

Cutting planes:
  Gomory: 2
  MIR: 393
  Flow cover: 3
  RLT: 11

Explored 1 nodes (6535 simplex iterations) in 2.42 seconds (1.18 work units)
Thread count was 20 (of 20 available processors)

Solution count 5: 268.945 268.546 263.393 ... 255.958

Optimal solution found (tolerance 1.00e-04)
Best objective 2.689447338995e+02, best bound 2.689447338995e+02, gap 0.0000%



#########node  1
V1.7
#########node  2
0.1836734693877551,0.8163265306122449
#########node  3
1.0,0.0


Total Solving Time 2.7845144271850586
obj value 268.94473389946245
Policy Regret train (Sum) 9.912030792665206
Best Treatment Found train (%) 57.599999999999994
treatment classification acc train (%) 35.6
Policy Regret test (Sum) 38.72832714295484
Best Treatment Found test (%) 81.04
treatment classification acc test (%) 35.17
